
Gurobi 10.0.3 (linux64, gurobi_cl) logging started Thu Nov  2 11:33:57 2023

Set parameter Username
Set parameter TimeLimit to value 3600
Set parameter LogFile to value "RCPSP_6.log"
Set parameter Threads to value 32
Academic license - for non-commercial use only - expires 2024-10-30
Using license file /home/jrivera6/gurobi-licenses/v1003/compute-0-34/gurobi.lic

Gurobi Optimizer version 10.0.3 build v10.0.3rc0 (linux64)
Copyright (c) 2023, Gurobi Optimization, LLC

Read MPS format model from file RCPSP_6.mps
Reading time = 0.01 seconds
RCPSP_6: 5329 rows, 2080 columns, 16083 nonzeros

CPU model: Intel(R) Xeon(R) Gold 6130 CPU @ 2.10GHz, instruction set [SSE2|AVX|AVX2|AVX512]
Thread count: 32 physical cores, 32 logical processors, using up to 32 threads

Optimize a model with 5329 rows, 2080 columns and 16083 nonzeros
Model fingerprint: 0xb8593cdb
Variable types: 32 continuous, 2048 integer (2048 binary)
Coefficient statistics:
  Matrix range     [1e+00, 1e+02]
  Objective range  [1e+00, 1e+00]
  Bounds range     [1e+00, 1e+00]
  RHS range        [1e+00, 1e+02]
Presolve removed 2851 rows and 1075 columns
Presolve time: 0.21s
Presolved: 2478 rows, 1005 columns, 7613 nonzeros
Variable types: 31 continuous, 974 integer (974 binary)

Root relaxation: objective 4.400000e+01, 353 iterations, 0.00 seconds (0.00 work units)

    Nodes    |    Current Node    |     Objective Bounds      |     Work
 Expl Unexpl |  Obj  Depth IntInf | Incumbent    BestBd   Gap | It/Node Time

     0     0   44.00000    0    1          -   44.00000      -     -    0s
H    0     0                      50.0000000   44.00000  12.0%     -    0s
H    0     0                      49.0000000   44.00000  10.2%     -    0s
     0     0   44.10526    0   67   49.00000   44.10526  10.0%     -    0s
     0     0   46.00000    0   62   49.00000   46.00000  6.12%     -    0s
     0     0   46.00000    0    2   49.00000   46.00000  6.12%     -    7s
H    0     0                      48.0000000   46.00000  4.17%     -    7s
     0     0   46.00000    0    2   48.00000   46.00000  4.17%     -    7s

Explored 1 nodes (1664 simplex iterations) in 7.42 seconds (0.33 work units)
Thread count was 32 (of 32 available processors)

Solution count 3: 48 49 50 

Optimal solution found (tolerance 1.00e-04)
Best objective 4.800000000000e+01, best bound 4.800000000000e+01, gap 0.0000%

Wrote result file 'RCPSP_6.sol'

